&control
calculation  = 'scf'
restart_mode = 'from_scratch'
pseudo_dir   = './'
outdir       = './'
prefix       = 'test'
/
&system
ibrav           = 1
celldm(1)       = 20
nat             = 5
ntyp            = 2
ecutwfc         = 100
nbnd            = 200
assume_isolated = 'mp'
/
&electrons
diago_full_acc = .true.
/
ATOMIC_SPECIES
Si 28.0855  Si_ONCV_PBE-1.2.upf
H  1.00794   H_ONCV_PBE-1.2.upf
ATOMIC_POSITIONS bohr
Si      10.000000   10.000000  10.000000
H       11.614581   11.614581  11.614581
H        8.385418    8.385418  11.614581
H        8.385418   11.614581   8.385418
H       11.614581    8.385418   8.385418
K_POINTS gamma