&CONTROL
   calculation      = 'scf'
   verbosity        = 'high'
   restart_mode     = 'from_scratch'
   outdir           = './'
   prefix           = 'benzene'
   pseudo_dir       = './'
/
&SYSTEM
   nbnd             = 30
   ecutwfc          = 50
   assume_isolated  = 'mp'
   ntyp             = 2
   nat              = 12
   ibrav            = 0
/
&ELECTRONS
   diago_full_acc   = .true.
/

ATOMIC_SPECIES
C 12.011 C_ONCV_PBE-1.2.upf
H 1.008 H_ONCV_PBE-1.2.upf

K_POINTS gamma

CELL_PARAMETERS angstrom
10.00000000000000 0.00000000000000 0.00000000000000
0.00000000000000 10.00000000000000 0.00000000000000
0.00000000000000 0.00000000000000 10.00000000000000

ATOMIC_POSITIONS angstrom
C 1.2115000000 0.6995000000 0.0000000000
C 1.2115000000 -0.6995000000 0.0000000000
C 0.0000000000 1.3990000000 0.0000000000
C 0.0000000000 -1.3990000000 0.0000000000
C -1.2115000000 -0.6995000000 0.0000000000
C -1.2115000000 0.6995000000 0.0000000000
H 0.0000000000 2.5000000000 0.0000000000
H 2.1651000000 1.2500000000 0.0000000000
H 2.1651000000 -1.2500000000 0.0000000000
H 0.0000000000 -2.5000000000 0.0000000000
H -2.1651000000 -1.2500000000 0.0000000000
H -2.1651000000 1.2500000000 0.0000000000
