&CONTROL
  calculation = 'scf'
  prefix = 'nv_diamond'
  outdir = './'
  pseudo_dir = './'
/
&SYSTEM
  ibrav = 0
  nat = 511
  ntyp = 2
  ecutwfc = 50.0
  occupations = 'fixed'
  nspin = 2
  starting_magnetization(1) = 0.0
  starting_magnetization(2) = 0.5
  tot_charge = -1.0
  input_dft = 'PBE'
/
&ELECTRONS
  electron_maxstep = 300
  conv_thr = 1.0d-8
  mixing_mode = 'plain'
  mixing_beta = 0.2
  diagonalization = 'david'
  diago_full_acc = .false.
/

ATOMIC_SPECIES
C  12.01099968  C_ONCV_PBE-1.2.upf
N  14.00699997  N_ONCV_PBE-1.2.upf

CELL_PARAMETERS angstrom
     14.2680000000     0.0000000000     0.0000000000
      0.0000000000    14.2680000000     0.0000000000
      0.0000000000     0.0000000000    14.2680000000

ATOMIC_POSITIONS angstrom
C      0.0000000000     0.0000000000     0.0000000000
C      0.8917500000     0.8917500000     0.8917500000
C      0.0000000000     1.7835000000     1.7835000000
C      1.7835000000     0.0000000000     1.7835000000
C      2.6752500000     0.8917500000     2.6752500000
C      1.7835000000     1.7835000000     0.0000000000
C      2.6752500000     2.6752500000     0.8917500000
C      0.0000000000     0.0000000000     3.5670000000
C      0.8917500000     0.8917500000     4.4587500000
C      0.0000000000     1.7835000000     5.3505000000
C      0.8917500000     2.6752500000     6.2422500000
C      1.7835000000     0.0000000000     5.3505000000
C      2.6752500000     0.8917500000     6.2422500000
N      1.7835000000     1.7835000000     3.5670000000
C      2.6752500000     2.6752500000     4.4587500000
C      0.0000000000     0.0000000000     7.1340000000
C      0.8917500000     0.8917500000     8.0257500000
C      0.0000000000     1.7835000000     8.9175000000
C      0.8917500000     2.6752500000     9.8092500000
C      1.7835000000     0.0000000000     8.9175000000
C      2.6752500000     0.8917500000     9.8092500000
C      1.7835000000     1.7835000000     7.1340000000
C      2.6752500000     2.6752500000     8.0257500000
C      0.0000000000     0.0000000000    10.7010000000
C      0.8917500000     0.8917500000    11.5927500000
C      0.0000000000     1.7835000000    12.4845000000
C      0.8917500000     2.6752500000    13.3762500000
C      1.7835000000     0.0000000000    12.4845000000
C      2.6752500000     0.8917500000    13.3762500000
C      1.7835000000     1.7835000000    10.7010000000
C      2.6752500000     2.6752500000    11.5927500000
C      0.0000000000     3.5670000000     0.0000000000
C      0.8917500000     4.4587500000     0.8917500000
C      0.0000000000     5.3505000000     1.7835000000
C      0.8917500000     6.2422500000     2.6752500000
C      1.7835000000     3.5670000000     1.7835000000
C      2.6752500000     4.4587500000     2.6752500000
C      1.7835000000     5.3505000000     0.0000000000
C      2.6752500000     6.2422500000     0.8917500000
C      0.0000000000     3.5670000000     3.5670000000
C      0.8917500000     4.4587500000     4.4587500000
C      0.0000000000     5.3505000000     5.3505000000
C      0.8917500000     6.2422500000     6.2422500000
C      1.7835000000     3.5670000000     5.3505000000
C      2.6752500000     4.4587500000     6.2422500000
C      1.7835000000     5.3505000000     3.5670000000
C      2.6752500000     6.2422500000     4.4587500000
C      0.0000000000     3.5670000000     7.1340000000
C      0.8917500000     4.4587500000     8.0257500000
C      0.0000000000     5.3505000000     8.9175000000
C      0.8917500000     6.2422500000     9.8092500000
C      1.7835000000     3.5670000000     8.9175000000
C      2.6752500000     4.4587500000     9.8092500000
C      1.7835000000     5.3505000000     7.1340000000
C      2.6752500000     6.2422500000     8.0257500000
C      0.0000000000     3.5670000000    10.7010000000
C      0.8917500000     4.4587500000    11.5927500000
C      0.0000000000     5.3505000000    12.4845000000
C      0.8917500000     6.2422500000    13.3762500000
C      1.7835000000     3.5670000000    12.4845000000
C      2.6752500000     4.4587500000    13.3762500000
C      1.7835000000     5.3505000000    10.7010000000
C      2.6752500000     6.2422500000    11.5927500000
C      0.0000000000     7.1340000000     0.0000000000
C      0.8917500000     8.0257500000     0.8917500000
C      0.0000000000     8.9175000000     1.7835000000
C      0.8917500000     9.8092500000     2.6752500000
C      1.7835000000     7.1340000000     1.7835000000
C      2.6752500000     8.0257500000     2.6752500000
C      1.7835000000     8.9175000000     0.0000000000
C      2.6752500000     9.8092500000     0.8917500000
C      0.0000000000     7.1340000000     3.5670000000
C      0.8917500000     8.0257500000     4.4587500000
C      0.0000000000     8.9175000000     5.3505000000
C      0.8917500000     9.8092500000     6.2422500000
C      1.7835000000     7.1340000000     5.3505000000
C      2.6752500000     8.0257500000     6.2422500000
C      1.7835000000     8.9175000000     3.5670000000
C      2.6752500000     9.8092500000     4.4587500000
C      0.0000000000     7.1340000000     7.1340000000
C      0.8917500000     8.0257500000     8.0257500000
C      0.0000000000     8.9175000000     8.9175000000
C      0.8917500000     9.8092500000     9.8092500000
C      1.7835000000     7.1340000000     8.9175000000
C      2.6752500000     8.0257500000     9.8092500000
C      1.7835000000     8.9175000000     7.1340000000
C      2.6752500000     9.8092500000     8.0257500000
C      0.0000000000     7.1340000000    10.7010000000
C      0.8917500000     8.0257500000    11.5927500000
C      0.0000000000     8.9175000000    12.4845000000
C      0.8917500000     9.8092500000    13.3762500000
C      1.7835000000     7.1340000000    12.4845000000
C      2.6752500000     8.0257500000    13.3762500000
C      1.7835000000     8.9175000000    10.7010000000
C      2.6752500000     9.8092500000    11.5927500000
C      0.0000000000    10.7010000000     0.0000000000
C      0.8917500000    11.5927500000     0.8917500000
C      0.0000000000    12.4845000000     1.7835000000
C      0.8917500000    13.3762500000     2.6752500000
C      1.7835000000    10.7010000000     1.7835000000
C      2.6752500000    11.5927500000     2.6752500000
C      1.7835000000    12.4845000000     0.0000000000
C      2.6752500000    13.3762500000     0.8917500000
C      0.0000000000    10.7010000000     3.5670000000
C      0.8917500000    11.5927500000     4.4587500000
C      0.0000000000    12.4845000000     5.3505000000
C      0.8917500000    13.3762500000     6.2422500000
C      1.7835000000    10.7010000000     5.3505000000
C      2.6752500000    11.5927500000     6.2422500000
C      1.7835000000    12.4845000000     3.5670000000
C      2.6752500000    13.3762500000     4.4587500000
C      0.0000000000    10.7010000000     7.1340000000
C      0.8917500000    11.5927500000     8.0257500000
C      0.0000000000    12.4845000000     8.9175000000
C      0.8917500000    13.3762500000     9.8092500000
C      1.7835000000    10.7010000000     8.9175000000
C      2.6752500000    11.5927500000     9.8092500000
C      1.7835000000    12.4845000000     7.1340000000
C      2.6752500000    13.3762500000     8.0257500000
C      0.0000000000    10.7010000000    10.7010000000
C      0.8917500000    11.5927500000    11.5927500000
C      0.0000000000    12.4845000000    12.4845000000
C      0.8917500000    13.3762500000    13.3762500000
C      1.7835000000    10.7010000000    12.4845000000
C      2.6752500000    11.5927500000    13.3762500000
C      1.7835000000    12.4845000000    10.7010000000
C      2.6752500000    13.3762500000    11.5927500000
C      3.5670000000     0.0000000000     0.0000000000
C      4.4587500000     0.8917500000     0.8917500000
C      3.5670000000     1.7835000000     1.7835000000
C      4.4587500000     2.6752500000     2.6752500000
C      5.3505000000     0.0000000000     1.7835000000
C      6.2422500000     0.8917500000     2.6752500000
C      5.3505000000     1.7835000000     0.0000000000
C      6.2422500000     2.6752500000     0.8917500000
C      3.5670000000     0.0000000000     3.5670000000
C      4.4587500000     0.8917500000     4.4587500000
C      3.5670000000     1.7835000000     5.3505000000
C      4.4587500000     2.6752500000     6.2422500000
C      5.3505000000     0.0000000000     5.3505000000
C      6.2422500000     0.8917500000     6.2422500000
C      5.3505000000     1.7835000000     3.5670000000
C      6.2422500000     2.6752500000     4.4587500000
C      3.5670000000     0.0000000000     7.1340000000
C      4.4587500000     0.8917500000     8.0257500000
C      3.5670000000     1.7835000000     8.9175000000
C      4.4587500000     2.6752500000     9.8092500000
C      5.3505000000     0.0000000000     8.9175000000
C      6.2422500000     0.8917500000     9.8092500000
C      5.3505000000     1.7835000000     7.1340000000
C      6.2422500000     2.6752500000     8.0257500000
C      3.5670000000     0.0000000000    10.7010000000
C      4.4587500000     0.8917500000    11.5927500000
C      3.5670000000     1.7835000000    12.4845000000
C      4.4587500000     2.6752500000    13.3762500000
C      5.3505000000     0.0000000000    12.4845000000
C      6.2422500000     0.8917500000    13.3762500000
C      5.3505000000     1.7835000000    10.7010000000
C      6.2422500000     2.6752500000    11.5927500000
C      3.5670000000     3.5670000000     0.0000000000
C      4.4587500000     4.4587500000     0.8917500000
C      3.5670000000     5.3505000000     1.7835000000
C      4.4587500000     6.2422500000     2.6752500000
C      5.3505000000     3.5670000000     1.7835000000
C      6.2422500000     4.4587500000     2.6752500000
C      5.3505000000     5.3505000000     0.0000000000
C      6.2422500000     6.2422500000     0.8917500000
C      3.5670000000     3.5670000000     3.5670000000
C      4.4587500000     4.4587500000     4.4587500000
C      3.5670000000     5.3505000000     5.3505000000
C      4.4587500000     6.2422500000     6.2422500000
C      5.3505000000     3.5670000000     5.3505000000
C      6.2422500000     4.4587500000     6.2422500000
C      5.3505000000     5.3505000000     3.5670000000
C      6.2422500000     6.2422500000     4.4587500000
C      3.5670000000     3.5670000000     7.1340000000
C      4.4587500000     4.4587500000     8.0257500000
C      3.5670000000     5.3505000000     8.9175000000
C      4.4587500000     6.2422500000     9.8092500000
C      5.3505000000     3.5670000000     8.9175000000
C      6.2422500000     4.4587500000     9.8092500000
C      5.3505000000     5.3505000000     7.1340000000
C      6.2422500000     6.2422500000     8.0257500000
C      3.5670000000     3.5670000000    10.7010000000
C      4.4587500000     4.4587500000    11.5927500000
C      3.5670000000     5.3505000000    12.4845000000
C      4.4587500000     6.2422500000    13.3762500000
C      5.3505000000     3.5670000000    12.4845000000
C      6.2422500000     4.4587500000    13.3762500000
C      5.3505000000     5.3505000000    10.7010000000
C      6.2422500000     6.2422500000    11.5927500000
C      3.5670000000     7.1340000000     0.0000000000
C      4.4587500000     8.0257500000     0.8917500000
C      3.5670000000     8.9175000000     1.7835000000
C      4.4587500000     9.8092500000     2.6752500000
C      5.3505000000     7.1340000000     1.7835000000
C      6.2422500000     8.0257500000     2.6752500000
C      5.3505000000     8.9175000000     0.0000000000
C      6.2422500000     9.8092500000     0.8917500000
C      3.5670000000     7.1340000000     3.5670000000
C      4.4587500000     8.0257500000     4.4587500000
C      3.5670000000     8.9175000000     5.3505000000
C      4.4587500000     9.8092500000     6.2422500000
C      5.3505000000     7.1340000000     5.3505000000
C      6.2422500000     8.0257500000     6.2422500000
C      5.3505000000     8.9175000000     3.5670000000
C      6.2422500000     9.8092500000     4.4587500000
C      3.5670000000     7.1340000000     7.1340000000
C      4.4587500000     8.0257500000     8.0257500000
C      3.5670000000     8.9175000000     8.9175000000
C      4.4587500000     9.8092500000     9.8092500000
C      5.3505000000     7.1340000000     8.9175000000
C      6.2422500000     8.0257500000     9.8092500000
C      5.3505000000     8.9175000000     7.1340000000
C      6.2422500000     9.8092500000     8.0257500000
C      3.5670000000     7.1340000000    10.7010000000
C      4.4587500000     8.0257500000    11.5927500000
C      3.5670000000     8.9175000000    12.4845000000
C      4.4587500000     9.8092500000    13.3762500000
C      5.3505000000     7.1340000000    12.4845000000
C      6.2422500000     8.0257500000    13.3762500000
C      5.3505000000     8.9175000000    10.7010000000
C      6.2422500000     9.8092500000    11.5927500000
C      3.5670000000    10.7010000000     0.0000000000
C      4.4587500000    11.5927500000     0.8917500000
C      3.5670000000    12.4845000000     1.7835000000
C      4.4587500000    13.3762500000     2.6752500000
C      5.3505000000    10.7010000000     1.7835000000
C      6.2422500000    11.5927500000     2.6752500000
C      5.3505000000    12.4845000000     0.0000000000
C      6.2422500000    13.3762500000     0.8917500000
C      3.5670000000    10.7010000000     3.5670000000
C      4.4587500000    11.5927500000     4.4587500000
C      3.5670000000    12.4845000000     5.3505000000
C      4.4587500000    13.3762500000     6.2422500000
C      5.3505000000    10.7010000000     5.3505000000
C      6.2422500000    11.5927500000     6.2422500000
C      5.3505000000    12.4845000000     3.5670000000
C      6.2422500000    13.3762500000     4.4587500000
C      3.5670000000    10.7010000000     7.1340000000
C      4.4587500000    11.5927500000     8.0257500000
C      3.5670000000    12.4845000000     8.9175000000
C      4.4587500000    13.3762500000     9.8092500000
C      5.3505000000    10.7010000000     8.9175000000
C      6.2422500000    11.5927500000     9.8092500000
C      5.3505000000    12.4845000000     7.1340000000
C      6.2422500000    13.3762500000     8.0257500000
C      3.5670000000    10.7010000000    10.7010000000
C      4.4587500000    11.5927500000    11.5927500000
C      3.5670000000    12.4845000000    12.4845000000
C      4.4587500000    13.3762500000    13.3762500000
C      5.3505000000    10.7010000000    12.4845000000
C      6.2422500000    11.5927500000    13.3762500000
C      5.3505000000    12.4845000000    10.7010000000
C      6.2422500000    13.3762500000    11.5927500000
C      7.1340000000     0.0000000000     0.0000000000
C      8.0257500000     0.8917500000     0.8917500000
C      7.1340000000     1.7835000000     1.7835000000
C      8.0257500000     2.6752500000     2.6752500000
C      8.9175000000     0.0000000000     1.7835000000
C      9.8092500000     0.8917500000     2.6752500000
C      8.9175000000     1.7835000000     0.0000000000
C      9.8092500000     2.6752500000     0.8917500000
C      7.1340000000     0.0000000000     3.5670000000
C      8.0257500000     0.8917500000     4.4587500000
C      7.1340000000     1.7835000000     5.3505000000
C      8.0257500000     2.6752500000     6.2422500000
C      8.9175000000     0.0000000000     5.3505000000
C      9.8092500000     0.8917500000     6.2422500000
C      8.9175000000     1.7835000000     3.5670000000
C      9.8092500000     2.6752500000     4.4587500000
C      7.1340000000     0.0000000000     7.1340000000
C      8.0257500000     0.8917500000     8.0257500000
C      7.1340000000     1.7835000000     8.9175000000
C      8.0257500000     2.6752500000     9.8092500000
C      8.9175000000     0.0000000000     8.9175000000
C      9.8092500000     0.8917500000     9.8092500000
C      8.9175000000     1.7835000000     7.1340000000
C      9.8092500000     2.6752500000     8.0257500000
C      7.1340000000     0.0000000000    10.7010000000
C      8.0257500000     0.8917500000    11.5927500000
C      7.1340000000     1.7835000000    12.4845000000
C      8.0257500000     2.6752500000    13.3762500000
C      8.9175000000     0.0000000000    12.4845000000
C      9.8092500000     0.8917500000    13.3762500000
C      8.9175000000     1.7835000000    10.7010000000
C      9.8092500000     2.6752500000    11.5927500000
C      7.1340000000     3.5670000000     0.0000000000
C      8.0257500000     4.4587500000     0.8917500000
C      7.1340000000     5.3505000000     1.7835000000
C      8.0257500000     6.2422500000     2.6752500000
C      8.9175000000     3.5670000000     1.7835000000
C      9.8092500000     4.4587500000     2.6752500000
C      8.9175000000     5.3505000000     0.0000000000
C      9.8092500000     6.2422500000     0.8917500000
C      7.1340000000     3.5670000000     3.5670000000
C      8.0257500000     4.4587500000     4.4587500000
C      7.1340000000     5.3505000000     5.3505000000
C      8.0257500000     6.2422500000     6.2422500000
C      8.9175000000     3.5670000000     5.3505000000
C      9.8092500000     4.4587500000     6.2422500000
C      8.9175000000     5.3505000000     3.5670000000
C      9.8092500000     6.2422500000     4.4587500000
C      7.1340000000     3.5670000000     7.1340000000
C      8.0257500000     4.4587500000     8.0257500000
C      7.1340000000     5.3505000000     8.9175000000
C      8.0257500000     6.2422500000     9.8092500000
C      8.9175000000     3.5670000000     8.9175000000
C      9.8092500000     4.4587500000     9.8092500000
C      8.9175000000     5.3505000000     7.1340000000
C      9.8092500000     6.2422500000     8.0257500000
C      7.1340000000     3.5670000000    10.7010000000
C      8.0257500000     4.4587500000    11.5927500000
C      7.1340000000     5.3505000000    12.4845000000
C      8.0257500000     6.2422500000    13.3762500000
C      8.9175000000     3.5670000000    12.4845000000
C      9.8092500000     4.4587500000    13.3762500000
C      8.9175000000     5.3505000000    10.7010000000
C      9.8092500000     6.2422500000    11.5927500000
C      7.1340000000     7.1340000000     0.0000000000
C      8.0257500000     8.0257500000     0.8917500000
C      7.1340000000     8.9175000000     1.7835000000
C      8.0257500000     9.8092500000     2.6752500000
C      8.9175000000     7.1340000000     1.7835000000
C      9.8092500000     8.0257500000     2.6752500000
C      8.9175000000     8.9175000000     0.0000000000
C      9.8092500000     9.8092500000     0.8917500000
C      7.1340000000     7.1340000000     3.5670000000
C      8.0257500000     8.0257500000     4.4587500000
C      7.1340000000     8.9175000000     5.3505000000
C      8.0257500000     9.8092500000     6.2422500000
C      8.9175000000     7.1340000000     5.3505000000
C      9.8092500000     8.0257500000     6.2422500000
C      8.9175000000     8.9175000000     3.5670000000
C      9.8092500000     9.8092500000     4.4587500000
C      7.1340000000     7.1340000000     7.1340000000
C      8.0257500000     8.0257500000     8.0257500000
C      7.1340000000     8.9175000000     8.9175000000
C      8.0257500000     9.8092500000     9.8092500000
C      8.9175000000     7.1340000000     8.9175000000
C      9.8092500000     8.0257500000     9.8092500000
C      8.9175000000     8.9175000000     7.1340000000
C      9.8092500000     9.8092500000     8.0257500000
C      7.1340000000     7.1340000000    10.7010000000
C      8.0257500000     8.0257500000    11.5927500000
C      7.1340000000     8.9175000000    12.4845000000
C      8.0257500000     9.8092500000    13.3762500000
C      8.9175000000     7.1340000000    12.4845000000
C      9.8092500000     8.0257500000    13.3762500000
C      8.9175000000     8.9175000000    10.7010000000
C      9.8092500000     9.8092500000    11.5927500000
C      7.1340000000    10.7010000000     0.0000000000
C      8.0257500000    11.5927500000     0.8917500000
C      7.1340000000    12.4845000000     1.7835000000
C      8.0257500000    13.3762500000     2.6752500000
C      8.9175000000    10.7010000000     1.7835000000
C      9.8092500000    11.5927500000     2.6752500000
C      8.9175000000    12.4845000000     0.0000000000
C      9.8092500000    13.3762500000     0.8917500000
C      7.1340000000    10.7010000000     3.5670000000
C      8.0257500000    11.5927500000     4.4587500000
C      7.1340000000    12.4845000000     5.3505000000
C      8.0257500000    13.3762500000     6.2422500000
C      8.9175000000    10.7010000000     5.3505000000
C      9.8092500000    11.5927500000     6.2422500000
C      8.9175000000    12.4845000000     3.5670000000
C      9.8092500000    13.3762500000     4.4587500000
C      7.1340000000    10.7010000000     7.1340000000
C      8.0257500000    11.5927500000     8.0257500000
C      7.1340000000    12.4845000000     8.9175000000
C      8.0257500000    13.3762500000     9.8092500000
C      8.9175000000    10.7010000000     8.9175000000
C      9.8092500000    11.5927500000     9.8092500000
C      8.9175000000    12.4845000000     7.1340000000
C      9.8092500000    13.3762500000     8.0257500000
C      7.1340000000    10.7010000000    10.7010000000
C      8.0257500000    11.5927500000    11.5927500000
C      7.1340000000    12.4845000000    12.4845000000
C      8.0257500000    13.3762500000    13.3762500000
C      8.9175000000    10.7010000000    12.4845000000
C      9.8092500000    11.5927500000    13.3762500000
C      8.9175000000    12.4845000000    10.7010000000
C      9.8092500000    13.3762500000    11.5927500000
C     10.7010000000     0.0000000000     0.0000000000
C     11.5927500000     0.8917500000     0.8917500000
C     10.7010000000     1.7835000000     1.7835000000
C     11.5927500000     2.6752500000     2.6752500000
C     12.4845000000     0.0000000000     1.7835000000
C     13.3762500000     0.8917500000     2.6752500000
C     12.4845000000     1.7835000000     0.0000000000
C     13.3762500000     2.6752500000     0.8917500000
C     10.7010000000     0.0000000000     3.5670000000
C     11.5927500000     0.8917500000     4.4587500000
C     10.7010000000     1.7835000000     5.3505000000
C     11.5927500000     2.6752500000     6.2422500000
C     12.4845000000     0.0000000000     5.3505000000
C     13.3762500000     0.8917500000     6.2422500000
C     12.4845000000     1.7835000000     3.5670000000
C     13.3762500000     2.6752500000     4.4587500000
C     10.7010000000     0.0000000000     7.1340000000
C     11.5927500000     0.8917500000     8.0257500000
C     10.7010000000     1.7835000000     8.9175000000
C     11.5927500000     2.6752500000     9.8092500000
C     12.4845000000     0.0000000000     8.9175000000
C     13.3762500000     0.8917500000     9.8092500000
C     12.4845000000     1.7835000000     7.1340000000
C     13.3762500000     2.6752500000     8.0257500000
C     10.7010000000     0.0000000000    10.7010000000
C     11.5927500000     0.8917500000    11.5927500000
C     10.7010000000     1.7835000000    12.4845000000
C     11.5927500000     2.6752500000    13.3762500000
C     12.4845000000     0.0000000000    12.4845000000
C     13.3762500000     0.8917500000    13.3762500000
C     12.4845000000     1.7835000000    10.7010000000
C     13.3762500000     2.6752500000    11.5927500000
C     10.7010000000     3.5670000000     0.0000000000
C     11.5927500000     4.4587500000     0.8917500000
C     10.7010000000     5.3505000000     1.7835000000
C     11.5927500000     6.2422500000     2.6752500000
C     12.4845000000     3.5670000000     1.7835000000
C     13.3762500000     4.4587500000     2.6752500000
C     12.4845000000     5.3505000000     0.0000000000
C     13.3762500000     6.2422500000     0.8917500000
C     10.7010000000     3.5670000000     3.5670000000
C     11.5927500000     4.4587500000     4.4587500000
C     10.7010000000     5.3505000000     5.3505000000
C     11.5927500000     6.2422500000     6.2422500000
C     12.4845000000     3.5670000000     5.3505000000
C     13.3762500000     4.4587500000     6.2422500000
C     12.4845000000     5.3505000000     3.5670000000
C     13.3762500000     6.2422500000     4.4587500000
C     10.7010000000     3.5670000000     7.1340000000
C     11.5927500000     4.4587500000     8.0257500000
C     10.7010000000     5.3505000000     8.9175000000
C     11.5927500000     6.2422500000     9.8092500000
C     12.4845000000     3.5670000000     8.9175000000
C     13.3762500000     4.4587500000     9.8092500000
C     12.4845000000     5.3505000000     7.1340000000
C     13.3762500000     6.2422500000     8.0257500000
C     10.7010000000     3.5670000000    10.7010000000
C     11.5927500000     4.4587500000    11.5927500000
C     10.7010000000     5.3505000000    12.4845000000
C     11.5927500000     6.2422500000    13.3762500000
C     12.4845000000     3.5670000000    12.4845000000
C     13.3762500000     4.4587500000    13.3762500000
C     12.4845000000     5.3505000000    10.7010000000
C     13.3762500000     6.2422500000    11.5927500000
C     10.7010000000     7.1340000000     0.0000000000
C     11.5927500000     8.0257500000     0.8917500000
C     10.7010000000     8.9175000000     1.7835000000
C     11.5927500000     9.8092500000     2.6752500000
C     12.4845000000     7.1340000000     1.7835000000
C     13.3762500000     8.0257500000     2.6752500000
C     12.4845000000     8.9175000000     0.0000000000
C     13.3762500000     9.8092500000     0.8917500000
C     10.7010000000     7.1340000000     3.5670000000
C     11.5927500000     8.0257500000     4.4587500000
C     10.7010000000     8.9175000000     5.3505000000
C     11.5927500000     9.8092500000     6.2422500000
C     12.4845000000     7.1340000000     5.3505000000
C     13.3762500000     8.0257500000     6.2422500000
C     12.4845000000     8.9175000000     3.5670000000
C     13.3762500000     9.8092500000     4.4587500000
C     10.7010000000     7.1340000000     7.1340000000
C     11.5927500000     8.0257500000     8.0257500000
C     10.7010000000     8.9175000000     8.9175000000
C     11.5927500000     9.8092500000     9.8092500000
C     12.4845000000     7.1340000000     8.9175000000
C     13.3762500000     8.0257500000     9.8092500000
C     12.4845000000     8.9175000000     7.1340000000
C     13.3762500000     9.8092500000     8.0257500000
C     10.7010000000     7.1340000000    10.7010000000
C     11.5927500000     8.0257500000    11.5927500000
C     10.7010000000     8.9175000000    12.4845000000
C     11.5927500000     9.8092500000    13.3762500000
C     12.4845000000     7.1340000000    12.4845000000
C     13.3762500000     8.0257500000    13.3762500000
C     12.4845000000     8.9175000000    10.7010000000
C     13.3762500000     9.8092500000    11.5927500000
C     10.7010000000    10.7010000000     0.0000000000
C     11.5927500000    11.5927500000     0.8917500000
C     10.7010000000    12.4845000000     1.7835000000
C     11.5927500000    13.3762500000     2.6752500000
C     12.4845000000    10.7010000000     1.7835000000
C     13.3762500000    11.5927500000     2.6752500000
C     12.4845000000    12.4845000000     0.0000000000
C     13.3762500000    13.3762500000     0.8917500000
C     10.7010000000    10.7010000000     3.5670000000
C     11.5927500000    11.5927500000     4.4587500000
C     10.7010000000    12.4845000000     5.3505000000
C     11.5927500000    13.3762500000     6.2422500000
C     12.4845000000    10.7010000000     5.3505000000
C     13.3762500000    11.5927500000     6.2422500000
C     12.4845000000    12.4845000000     3.5670000000
C     13.3762500000    13.3762500000     4.4587500000
C     10.7010000000    10.7010000000     7.1340000000
C     11.5927500000    11.5927500000     8.0257500000
C     10.7010000000    12.4845000000     8.9175000000
C     11.5927500000    13.3762500000     9.8092500000
C     12.4845000000    10.7010000000     8.9175000000
C     13.3762500000    11.5927500000     9.8092500000
C     12.4845000000    12.4845000000     7.1340000000
C     13.3762500000    13.3762500000     8.0257500000
C     10.7010000000    10.7010000000    10.7010000000
C     11.5927500000    11.5927500000    11.5927500000
C     10.7010000000    12.4845000000    12.4845000000
C     11.5927500000    13.3762500000    13.3762500000
C     12.4845000000    10.7010000000    12.4845000000
C     13.3762500000    11.5927500000    13.3762500000
C     12.4845000000    12.4845000000    10.7010000000
C     13.3762500000    13.3762500000    11.5927500000

K_POINTS gamma
